param n := 120;
param c := 1000;
param : V : p w :=
   0	  81	 373
   1	   1	 267
   2	  51	 360
   3	   4	 432
   4	  62	 279
   5	  50	 289
   6	   4	 462
   7	  73	 263
   8	  32	 275
   9	  40	 480
  10	  89	 254
  11	  52	 266
  12	   4	 488
  13	  85	 252
  14	  87	 260
  15	  43	 484
  16	   6	 255
  17	  41	 261
  18	  48	 414
  19	  91	 265
  20	  23	 321
  21	  47	 464
  22	  71	 266
  23	  54	 270
  24	  77	 370
  25	 100	 280
  26	  18	 350
  27	   4	 452
  28	  56	 272
  29	  56	 276
  30	  85	 446
  31	   9	 269
  32	  91	 285
  33	  96	 447
  34	   4	 267
  35	  47	 286
  36	  79	 430
  37	  88	 256
  38	  93	 314
  39	  90	 465
  40	   5	 263
  41	  66	 272
  42	  27	 473
  43	  27	 259
  44	  12	 268
  45	  91	 409
  46	  97	 288
  47	  94	 303
  48	  84	 499
  49	  36	 250
  50	   7	 251
  51	  48	 483
  52	  66	 252
  53	  20	 265
  54	  86	 384
  55	  80	 283
  56	  77	 333
  57	  34	 484
  58	  75	 251
  59	  71	 265
  60	 100	 481
  61	  98	 257
  62	   9	 262
  63	  51	 401
  64	  52	 298
  65	  48	 301
  66	  63	 396
  67	  16	 289
  68	  50	 315
  69	  57	 382
  70	  59	 250
  71	  12	 368
  72	  78	 410
  73	  14	 256
  74	  98	 334
  75	  84	 497
  76	   3	 250
  77	  79	 253
  78	  52	 359
  79	  67	 317
  80	   4	 324
  81	  72	 424
  82	  38	 251
  83	  32	 325
  84	  91	 357
  85	  60	 306
  86	   4	 337
  87	  55	 396
  88	  19	 254
  89	  97	 350
  90	  19	 469
  91	  39	 258
  92	  17	 273
  93	  68	 391
  94	  72	 274
  95	  35	 335
  96	  88	 426
  97	  91	 278
  98	   6	 296
  99	  21	 434
 100	  84	 268
 101	  78	 298
 102	  21	 491
 103	  51	 251
 104	  30	 258
 105	  27	 460
 106	  16	 261
 107	  49	 279
 108	  21	 403
 109	  22	 289
 110	  90	 308
 111	  99	 436
 112	  60	 266
 113	  29	 298
 114	 100	 350
 115	  38	 322
 116	  57	 328
 117	  93	 419
 118	  96	 269
 119	  93	 312
;

set E :=
   0	   1
   0	   5
   0	   7
   0	   9
   0	  10
   0	  11
   0	  12
   0	  15
   0	  20
   0	  21
   0	  23
   0	  26
   0	  28
   0	  29
   0	  30
   0	  31
   0	  32
   0	  34
   0	  42
   0	  49
   0	  51
   0	  55
   0	  56
   0	  58
   0	  59
   0	  64
   0	  69
   0	  73
   0	  75
   0	  77
   0	  79
   0	  81
   0	  82
   0	  84
   0	  91
   0	  94
   0	  97
   0	  98
   0	  99
   0	 101
   0	 103
   0	 104
   0	 106
   0	 109
   0	 111
   0	 112
   0	 113
   0	 114
   0	 117
   0	 119
   1	   4
   1	   5
   1	   6
   1	   7
   1	   8
   1	   9
   1	  10
   1	  11
   1	  14
   1	  15
   1	  17
   1	  19
   1	  22
   1	  24
   1	  26
   1	  28
   1	  29
   1	  32
   1	  34
   1	  36
   1	  40
   1	  42
   1	  43
   1	  44
   1	  46
   1	  48
   1	  49
   1	  52
   1	  54
   1	  56
   1	  57
   1	  58
   1	  62
   1	  64
   1	  67
   1	  68
   1	  71
   1	  73
   1	  74
   1	  78
   1	  80
   1	  81
   1	  82
   1	  83
   1	  84
   1	  85
   1	  86
   1	  87
   1	  90
   1	  92
   1	  94
   1	  95
   1	  97
   1	 102
   1	 105
   1	 108
   1	 109
   1	 112
   1	 113
   1	 115
   1	 116
   1	 118
   2	   3
   2	   5
   2	   7
   2	   9
   2	  11
   2	  13
   2	  14
   2	  23
   2	  26
   2	  27
   2	  32
   2	  37
   2	  41
   2	  47
   2	  48
   2	  55
   2	  57
   2	  65
   2	  69
   2	  71
   2	  73
   2	  75
   2	  77
   2	  80
   2	  81
   2	  82
   2	  85
   2	  87
   2	  89
   2	  93
   2	  94
   2	  95
   2	  96
   2	  99
   2	 101
   2	 105
   2	 108
   2	 112
   2	 113
   2	 114
   3	   4
   3	   7
   3	   9
   3	  11
   3	  12
   3	  14
   3	  15
   3	  22
   3	  23
   3	  24
   3	  25
   3	  30
   3	  31
   3	  34
   3	  37
   3	  39
   3	  40
   3	  42
   3	  45
   3	  50
   3	  51
   3	  53
   3	  60
   3	  70
   3	  71
   3	  72
   3	  75
   3	  77
   3	  84
   3	  86
   3	  87
   3	  90
   3	  92
   3	  94
   3	  96
   3	 102
   3	 110
   3	 112
   3	 117
   3	 118
   4	   6
   4	   7
   4	   8
   4	  14
   4	  16
   4	  19
   4	  21
   4	  26
   4	  27
   4	  35
   4	  39
   4	  42
   4	  44
   4	  47
   4	  50
   4	  52
   4	  53
   4	  57
   4	  60
   4	  62
   4	  67
   4	  70
   4	  71
   4	  72
   4	  75
   4	  76
   4	  77
   4	  79
   4	  80
   4	  83
   4	  88
   4	  89
   4	  91
   4	  94
   4	  95
   4	 101
   4	 102
   4	 105
   4	 107
   4	 110
   4	 112
   4	 115
   5	  11
   5	  15
   5	  16
   5	  17
   5	  24
   5	  26
   5	  28
   5	  30
   5	  38
   5	  39
   5	  44
   5	  46
   5	  48
   5	  49
   5	  52
   5	  54
   5	  55
   5	  57
   5	  58
   5	  59
   5	  61
   5	  62
   5	  63
   5	  65
   5	  77
   5	  78
   5	  81
   5	  82
   5	  86
   5	  87
   5	  89
   5	  95
   5	 102
   5	 103
   5	 105
   5	 108
   5	 110
   5	 112
   5	 114
   5	 115
   5	 116
   5	 119
   6	  10
   6	  14
   6	  15
   6	  20
   6	  23
   6	  24
   6	  25
   6	  29
   6	  30
   6	  39
   6	  42
   6	  44
   6	  45
   6	  46
   6	  47
   6	  48
   6	  49
   6	  50
   6	  61
   6	  68
   6	  69
   6	  71
   6	  74
   6	  76
   6	  77
   6	  80
   6	  81
   6	  82
   6	  83
   6	  90
   6	  96
   6	 101
   6	 102
   6	 103
   6	 104
   6	 105
   6	 108
   6	 109
   6	 110
   6	 111
   6	 114
   6	 117
   6	 118
   6	 119
   7	   8
   7	  13
   7	  14
   7	  16
   7	  17
   7	  18
   7	  19
   7	  29
   7	  38
   7	  39
   7	  41
   7	  42
   7	  49
   7	  50
   7	  57
   7	  58
   7	  59
   7	  61
   7	  65
   7	  68
   7	  69
   7	  74
   7	  78
   7	  79
   7	  81
   7	  82
   7	  85
   7	  96
   7	  97
   7	 102
   7	 104
   7	 110
   7	 113
   7	 115
   7	 117
   8	  13
   8	  14
   8	  19
   8	  20
   8	  23
   8	  24
   8	  26
   8	  27
   8	  29
   8	  30
   8	  37
   8	  44
   8	  45
   8	  48
   8	  49
   8	  53
   8	  54
   8	  59
   8	  60
   8	  61
   8	  62
   8	  63
   8	  65
   8	  67
   8	  68
   8	  69
   8	  75
   8	  76
   8	  77
   8	  80
   8	  86
   8	  93
   8	  97
   8	  99
   8	 100
   8	 103
   8	 105
   8	 106
   8	 108
   8	 109
   8	 110
   8	 112
   8	 113
   8	 115
   8	 117
   9	  12
   9	  16
   9	  18
   9	  22
   9	  24
   9	  25
   9	  27
   9	  29
   9	  30
   9	  31
   9	  33
   9	  34
   9	  35
   9	  36
   9	  37
   9	  39
   9	  42
   9	  45
   9	  46
   9	  49
   9	  51
   9	  53
   9	  54
   9	  57
   9	  58
   9	  60
   9	  61
   9	  64
   9	  65
   9	  67
   9	  69
   9	  70
   9	  73
   9	  74
   9	  76
   9	  79
   9	  81
   9	  82
   9	  94
   9	 100
   9	 102
   9	 105
   9	 110
   9	 113
   9	 114
   9	 115
   9	 117
   9	 118
   9	 119
  10	  11
  10	  12
  10	  13
  10	  18
  10	  19
  10	  20
  10	  30
  10	  32
  10	  36
  10	  39
  10	  41
  10	  42
  10	  44
  10	  48
  10	  50
  10	  51
  10	  58
  10	  59
  10	  63
  10	  65
  10	  68
  10	  71
  10	  72
  10	  76
  10	  77
  10	  79
  10	  80
  10	  81
  10	  83
  10	  85
  10	  86
  10	  90
  10	  92
  10	  94
  10	  98
  10	 102
  10	 103
  10	 111
  10	 112
  10	 114
  10	 115
  10	 118
  10	 119
  11	  12
  11	  16
  11	  20
  11	  21
  11	  22
  11	  26
  11	  28
  11	  29
  11	  32
  11	  34
  11	  36
  11	  37
  11	  38
  11	  42
  11	  47
  11	  50
  11	  58
  11	  60
  11	  62
  11	  63
  11	  65
  11	  68
  11	  75
  11	  77
  11	  81
  11	  85
  11	  89
  11	  90
  11	  91
  11	  92
  11	  94
  11	  98
  11	 101
  11	 102
  11	 105
  11	 106
  11	 111
  11	 112
  11	 115
  11	 118
  11	 119
  12	  26
  12	  27
  12	  28
  12	  29
  12	  30
  12	  31
  12	  32
  12	  35
  12	  37
  12	  41
  12	  42
  12	  49
  12	  51
  12	  56
  12	  60
  12	  63
  12	  68
  12	  70
  12	  72
  12	  73
  12	  74
  12	  76
  12	  77
  12	  78
  12	  82
  12	  83
  12	  88
  12	  89
  12	  91
  12	  99
  12	 103
  12	 104
  12	 108
  12	 110
  12	 112
  12	 113
  12	 114
  12	 117
  13	  14
  13	  16
  13	  18
  13	  23
  13	  24
  13	  28
  13	  31
  13	  34
  13	  39
  13	  41
  13	  45
  13	  50
  13	  52
  13	  53
  13	  55
  13	  57
  13	  61
  13	  64
  13	  67
  13	  71
  13	  75
  13	  76
  13	  78
  13	  80
  13	  84
  13	  86
  13	  87
  13	  89
  13	  91
  13	  94
  13	  95
  13	  96
  13	  98
  13	 100
  13	 101
  13	 102
  13	 103
  13	 110
  13	 114
  13	 117
  13	 119
  14	  18
  14	  20
  14	  26
  14	  27
  14	  28
  14	  33
  14	  34
  14	  35
  14	  36
  14	  39
  14	  40
  14	  42
  14	  43
  14	  45
  14	  46
  14	  48
  14	  49
  14	  50
  14	  51
  14	  53
  14	  54
  14	  58
  14	  59
  14	  62
  14	  63
  14	  65
  14	  71
  14	  73
  14	  75
  14	  76
  14	  82
  14	  84
  14	  86
  14	  89
  14	  90
  14	  95
  14	  96
  14	 101
  14	 102
  14	 103
  14	 104
  14	 105
  14	 106
  14	 107
  14	 108
  14	 109
  14	 110
  14	 111
  14	 112
  14	 114
  14	 115
  14	 116
  14	 117
  15	  19
  15	  22
  15	  24
  15	  25
  15	  26
  15	  29
  15	  30
  15	  34
  15	  35
  15	  37
  15	  40
  15	  43
  15	  45
  15	  49
  15	  52
  15	  54
  15	  56
  15	  62
  15	  64
  15	  65
  15	  67
  15	  71
  15	  72
  15	  75
  15	  77
  15	  78
  15	  79
  15	  80
  15	  83
  15	  85
  15	  87
  15	  91
  15	  93
  15	  94
  15	  95
  15	  96
  15	 100
  15	 101
  15	 106
  15	 110
  15	 111
  15	 112
  15	 113
  15	 117
  15	 119
  16	  17
  16	  20
  16	  21
  16	  25
  16	  26
  16	  28
  16	  29
  16	  33
  16	  34
  16	  36
  16	  42
  16	  44
  16	  46
  16	  48
  16	  49
  16	  50
  16	  56
  16	  59
  16	  64
  16	  65
  16	  67
  16	  69
  16	  70
  16	  73
  16	  76
  16	  83
  16	  84
  16	  88
  16	  92
  16	 103
  16	 105
  16	 111
  16	 114
  16	 115
  16	 116
  17	  21
  17	  22
  17	  24
  17	  27
  17	  29
  17	  32
  17	  33
  17	  36
  17	  40
  17	  42
  17	  45
  17	  48
  17	  50
  17	  52
  17	  53
  17	  54
  17	  57
  17	  62
  17	  64
  17	  66
  17	  69
  17	  70
  17	  76
  17	  80
  17	  82
  17	  85
  17	  86
  17	  87
  17	  88
  17	  89
  17	  90
  17	  99
  17	 100
  17	 103
  17	 108
  17	 110
  17	 111
  17	 115
  17	 117
  18	  19
  18	  23
  18	  30
  18	  31
  18	  35
  18	  37
  18	  43
  18	  44
  18	  45
  18	  48
  18	  49
  18	  52
  18	  53
  18	  54
  18	  56
  18	  57
  18	  58
  18	  60
  18	  65
  18	  69
  18	  70
  18	  75
  18	  77
  18	  78
  18	  79
  18	  81
  18	  86
  18	  87
  18	  89
  18	  91
  18	  92
  18	  94
  18	  95
  18	  99
  18	 101
  18	 103
  18	 104
  18	 105
  18	 107
  18	 112
  18	 116
  19	  21
  19	  24
  19	  26
  19	  27
  19	  33
  19	  34
  19	  36
  19	  38
  19	  49
  19	  51
  19	  52
  19	  53
  19	  57
  19	  60
  19	  61
  19	  71
  19	  72
  19	  73
  19	  78
  19	  80
  19	  81
  19	  88
  19	  89
  19	  91
  19	  95
  19	  96
  19	  97
  19	  98
  19	 100
  19	 103
  19	 104
  19	 111
  19	 114
  19	 115
  19	 116
  19	 117
  20	  21
  20	  23
  20	  25
  20	  27
  20	  28
  20	  31
  20	  33
  20	  34
  20	  37
  20	  38
  20	  40
  20	  43
  20	  46
  20	  48
  20	  50
  20	  55
  20	  57
  20	  67
  20	  68
  20	  70
  20	  73
  20	  76
  20	  84
  20	  86
  20	  88
  20	  92
  20	  94
  20	  95
  20	  97
  20	 100
  20	 106
  20	 107
  20	 108
  20	 111
  20	 112
  20	 114
  20	 117
  20	 119
  21	  23
  21	  25
  21	  27
  21	  29
  21	  33
  21	  34
  21	  37
  21	  39
  21	  45
  21	  46
  21	  48
  21	  52
  21	  53
  21	  55
  21	  57
  21	  58
  21	  59
  21	  61
  21	  63
  21	  64
  21	  70
  21	  75
  21	  76
  21	  81
  21	  82
  21	  84
  21	  85
  21	  86
  21	  87
  21	  88
  21	  90
  21	  91
  21	  93
  21	  97
  21	  98
  21	 100
  21	 101
  21	 104
  21	 106
  21	 108
  21	 109
  21	 110
  21	 111
  21	 112
  21	 113
  21	 115
  21	 117
  21	 118
  22	  23
  22	  28
  22	  29
  22	  37
  22	  39
  22	  41
  22	  44
  22	  45
  22	  48
  22	  49
  22	  60
  22	  63
  22	  67
  22	  70
  22	  73
  22	  78
  22	  80
  22	  82
  22	  83
  22	  88
  22	  89
  22	  95
  22	  96
  22	  99
  22	 101
  22	 106
  22	 108
  22	 112
  22	 113
  22	 114
  22	 116
  23	  25
  23	  26
  23	  31
  23	  33
  23	  35
  23	  43
  23	  60
  23	  62
  23	  64
  23	  65
  23	  66
  23	  67
  23	  69
  23	  70
  23	  72
  23	  74
  23	  76
  23	  78
  23	  81
  23	  90
  23	  91
  23	  96
  23	  98
  23	  99
  23	 100
  23	 103
  23	 105
  23	 108
  23	 109
  23	 111
  23	 113
  23	 116
  23	 119
  24	  25
  24	  29
  24	  31
  24	  34
  24	  35
  24	  37
  24	  39
  24	  42
  24	  44
  24	  46
  24	  47
  24	  49
  24	  52
  24	  54
  24	  56
  24	  62
  24	  64
  24	  67
  24	  68
  24	  69
  24	  72
  24	  78
  24	  79
  24	  82
  24	  83
  24	  90
  24	  91
  24	  96
  24	  98
  24	 103
  24	 106
  24	 108
  24	 110
  24	 111
  24	 112
  24	 118
  24	 119
  25	  26
  25	  29
  25	  31
  25	  32
  25	  33
  25	  37
  25	  39
  25	  40
  25	  45
  25	  49
  25	  50
  25	  53
  25	  55
  25	  59
  25	  61
  25	  62
  25	  63
  25	  66
  25	  67
  25	  69
  25	  75
  25	  80
  25	  82
  25	  83
  25	  85
  25	  92
  25	  93
  25	  96
  25	  97
  25	 101
  25	 102
  25	 103
  25	 104
  25	 106
  25	 108
  25	 109
  25	 110
  25	 114
  25	 116
  25	 117
  26	  30
  26	  33
  26	  34
  26	  36
  26	  37
  26	  39
  26	  44
  26	  47
  26	  49
  26	  54
  26	  56
  26	  58
  26	  62
  26	  65
  26	  66
  26	  68
  26	  70
  26	  72
  26	  74
  26	  75
  26	  77
  26	  78
  26	  79
  26	  80
  26	  82
  26	  84
  26	  85
  26	  86
  26	  87
  26	  90
  26	  93
  26	  95
  26	  99
  26	 103
  26	 104
  26	 105
  26	 109
  26	 112
  26	 113
  26	 115
  26	 116
  26	 117
  27	  28
  27	  30
  27	  31
  27	  32
  27	  35
  27	  38
  27	  41
  27	  44
  27	  47
  27	  48
  27	  56
  27	  61
  27	  64
  27	  65
  27	  66
  27	  70
  27	  73
  27	  80
  27	  81
  27	  82
  27	  83
  27	  84
  27	  86
  27	  88
  27	  89
  27	  90
  27	  91
  27	  96
  27	  98
  27	  99
  27	 100
  27	 101
  27	 102
  27	 103
  27	 108
  27	 109
  27	 112
  27	 115
  27	 117
  28	  30
  28	  35
  28	  40
  28	  41
  28	  42
  28	  43
  28	  44
  28	  45
  28	  48
  28	  50
  28	  51
  28	  52
  28	  54
  28	  55
  28	  58
  28	  65
  28	  66
  28	  67
  28	  68
  28	  69
  28	  70
  28	  71
  28	  74
  28	  75
  28	  76
  28	  79
  28	  81
  28	  83
  28	  84
  28	  85
  28	  86
  28	  87
  28	  91
  28	  92
  28	  94
  28	  95
  28	  97
  28	 102
  28	 103
  28	 104
  28	 106
  28	 111
  28	 114
  28	 115
  28	 116
  28	 117
  29	  33
  29	  37
  29	  43
  29	  46
  29	  49
  29	  51
  29	  56
  29	  62
  29	  64
  29	  70
  29	  71
  29	  72
  29	  73
  29	  75
  29	  77
  29	  78
  29	  82
  29	  84
  29	  89
  29	  90
  29	  91
  29	  93
  29	  94
  29	  97
  29	 105
  29	 106
  29	 107
  29	 111
  29	 116
  29	 117
  29	 118
  29	 119
  30	  32
  30	  34
  30	  35
  30	  36
  30	  37
  30	  38
  30	  43
  30	  44
  30	  46
  30	  48
  30	  50
  30	  52
  30	  57
  30	  59
  30	  61
  30	  63
  30	  70
  30	  71
  30	  72
  30	  75
  30	  77
  30	  78
  30	  80
  30	  85
  30	  90
  30	  94
  30	  95
  30	  96
  30	 101
  30	 102
  30	 106
  30	 109
  30	 110
  30	 113
  30	 116
  30	 118
  31	  34
  31	  38
  31	  40
  31	  41
  31	  42
  31	  44
  31	  47
  31	  48
  31	  53
  31	  54
  31	  56
  31	  57
  31	  60
  31	  61
  31	  68
  31	  72
  31	  74
  31	  78
  31	  79
  31	  80
  31	  85
  31	  88
  31	  90
  31	  97
  31	  98
  31	 103
  31	 105
  31	 106
  31	 107
  31	 108
  31	 110
  31	 114
  32	  33
  32	  38
  32	  41
  32	  42
  32	  45
  32	  47
  32	  48
  32	  50
  32	  51
  32	  58
  32	  60
  32	  63
  32	  64
  32	  66
  32	  67
  32	  70
  32	  73
  32	  75
  32	  76
  32	  86
  32	  87
  32	  90
  32	  92
  32	  95
  32	 100
  32	 102
  32	 104
  32	 105
  32	 106
  32	 107
  32	 108
  32	 110
  32	 112
  32	 114
  33	  35
  33	  38
  33	  39
  33	  40
  33	  43
  33	  46
  33	  48
  33	  50
  33	  51
  33	  52
  33	  57
  33	  58
  33	  60
  33	  62
  33	  64
  33	  66
  33	  68
  33	  70
  33	  71
  33	  72
  33	  73
  33	  75
  33	  76
  33	  77
  33	  79
  33	  80
  33	  86
  33	  87
  33	  92
  33	  93
  33	  95
  33	  96
  33	  97
  33	 101
  33	 102
  33	 103
  33	 104
  33	 107
  33	 110
  33	 111
  33	 112
  33	 116
  33	 119
  34	  35
  34	  37
  34	  38
  34	  39
  34	  40
  34	  43
  34	  44
  34	  47
  34	  55
  34	  56
  34	  58
  34	  60
  34	  61
  34	  62
  34	  64
  34	  70
  34	  71
  34	  73
  34	  74
  34	  75
  34	  79
  34	  80
  34	  82
  34	  83
  34	  84
  34	  85
  34	  89
  34	  93
  34	  95
  34	  96
  34	  97
  34	 101
  34	 102
  34	 104
  34	 105
  34	 108
  34	 110
  34	 111
  34	 112
  34	 114
  34	 116
  34	 118
  35	  38
  35	  39
  35	  41
  35	  42
  35	  43
  35	  45
  35	  46
  35	  47
  35	  55
  35	  59
  35	  60
  35	  61
  35	  65
  35	  67
  35	  68
  35	  73
  35	  77
  35	  78
  35	  80
  35	  84
  35	  85
  35	  86
  35	  91
  35	  92
  35	  94
  35	  96
  35	  98
  35	 101
  35	 103
  35	 104
  35	 106
  35	 107
  35	 108
  35	 110
  35	 112
  35	 113
  35	 116
  35	 117
  36	  38
  36	  47
  36	  48
  36	  50
  36	  51
  36	  52
  36	  53
  36	  54
  36	  57
  36	  60
  36	  62
  36	  65
  36	  67
  36	  68
  36	  71
  36	  75
  36	  77
  36	  80
  36	  82
  36	  90
  36	  91
  36	  93
  36	  94
  36	  98
  36	 100
  36	 104
  36	 113
  36	 115
  36	 116
  36	 117
  36	 119
  37	  38
  37	  41
  37	  43
  37	  44
  37	  45
  37	  47
  37	  49
  37	  50
  37	  51
  37	  58
  37	  59
  37	  60
  37	  61
  37	  62
  37	  63
  37	  66
  37	  68
  37	  73
  37	  74
  37	  76
  37	  79
  37	  81
  37	  85
  37	  88
  37	  95
  37	  97
  37	  99
  37	 100
  37	 104
  37	 106
  37	 109
  37	 113
  37	 114
  38	  39
  38	  41
  38	  43
  38	  46
  38	  47
  38	  48
  38	  51
  38	  55
  38	  59
  38	  76
  38	  79
  38	  80
  38	  85
  38	  86
  38	  87
  38	  88
  38	  92
  38	  94
  38	 100
  38	 101
  38	 102
  38	 106
  38	 110
  38	 113
  38	 114
  38	 115
  38	 117
  39	  40
  39	  41
  39	  47
  39	  48
  39	  50
  39	  52
  39	  54
  39	  60
  39	  64
  39	  65
  39	  66
  39	  70
  39	  71
  39	  72
  39	  73
  39	  75
  39	  76
  39	  77
  39	  78
  39	  80
  39	  82
  39	  83
  39	  85
  39	  87
  39	  89
  39	  92
  39	  93
  39	  95
  39	  97
  39	  98
  39	 101
  39	 102
  39	 105
  39	 107
  39	 109
  39	 115
  39	 116
  39	 118
  40	  42
  40	  44
  40	  45
  40	  47
  40	  48
  40	  49
  40	  51
  40	  52
  40	  53
  40	  55
  40	  57
  40	  58
  40	  60
  40	  61
  40	  63
  40	  64
  40	  65
  40	  66
  40	  70
  40	  74
  40	  75
  40	  77
  40	  79
  40	  80
  40	  83
  40	  86
  40	  89
  40	  94
  40	  95
  40	  97
  40	 104
  40	 105
  40	 109
  40	 111
  40	 112
  40	 116
  40	 119
  41	  45
  41	  51
  41	  54
  41	  60
  41	  63
  41	  64
  41	  65
  41	  66
  41	  67
  41	  68
  41	  70
  41	  71
  41	  72
  41	  75
  41	  76
  41	  78
  41	  79
  41	  80
  41	  82
  41	  83
  41	  84
  41	  86
  41	  88
  41	  89
  41	  92
  41	  93
  41	  95
  41	  98
  41	 100
  41	 101
  41	 103
  41	 109
  41	 114
  41	 118
  42	  43
  42	  47
  42	  49
  42	  50
  42	  51
  42	  53
  42	  56
  42	  59
  42	  62
  42	  63
  42	  65
  42	  69
  42	  70
  42	  74
  42	  75
  42	  79
  42	  80
  42	  81
  42	  84
  42	  90
  42	  96
  42	 101
  42	 102
  42	 103
  42	 104
  42	 106
  42	 108
  42	 109
  42	 110
  42	 113
  42	 117
  42	 118
  43	  44
  43	  46
  43	  50
  43	  52
  43	  53
  43	  56
  43	  57
  43	  58
  43	  60
  43	  61
  43	  62
  43	  63
  43	  65
  43	  66
  43	  70
  43	  78
  43	  81
  43	  84
  43	  85
  43	  86
  43	  87
  43	  88
  43	  91
  43	  94
  43	  96
  43	 101
  43	 102
  43	 103
  43	 104
  43	 110
  43	 116
  44	  45
  44	  48
  44	  51
  44	  52
  44	  58
  44	  63
  44	  65
  44	  74
  44	  83
  44	  86
  44	  87
  44	  92
  44	  97
  44	  98
  44	  99
  44	 100
  44	 101
  44	 103
  44	 106
  44	 111
  44	 112
  44	 114
  44	 115
  44	 117
  44	 119
  45	  48
  45	  51
  45	  55
  45	  56
  45	  57
  45	  58
  45	  59
  45	  61
  45	  65
  45	  67
  45	  68
  45	  70
  45	  71
  45	  72
  45	  73
  45	  83
  45	  84
  45	  85
  45	  87
  45	  88
  45	  90
  45	  92
  45	  94
  45	  96
  45	 101
  45	 104
  45	 106
  45	 107
  45	 109
  45	 117
  45	 118
  46	  50
  46	  52
  46	  56
  46	  58
  46	  60
  46	  62
  46	  63
  46	  67
  46	  69
  46	  70
  46	  74
  46	  75
  46	  79
  46	  81
  46	  82
  46	  87
  46	  88
  46	  91
  46	  92
  46	  94
  46	  95
  46	  96
  46	  99
  46	 101
  46	 102
  46	 104
  46	 105
  46	 107
  46	 108
  46	 111
  46	 112
  46	 113
  46	 116
  46	 118
  46	 119
  47	  48
  47	  49
  47	  51
  47	  53
  47	  54
  47	  66
  47	  67
  47	  68
  47	  72
  47	  74
  47	  75
  47	  76
  47	  78
  47	  79
  47	  80
  47	  81
  47	  83
  47	  85
  47	  86
  47	  88
  47	  89
  47	  90
  47	  91
  47	  92
  47	  94
  47	  96
  47	  97
  47	  98
  47	  99
  47	 101
  47	 102
  47	 105
  47	 109
  47	 110
  47	 114
  47	 118
  47	 119
  48	  49
  48	  50
  48	  51
  48	  53
  48	  55
  48	  63
  48	  64
  48	  65
  48	  68
  48	  71
  48	  75
  48	  83
  48	  85
  48	  86
  48	  87
  48	  92
  48	  94
  48	  96
  48	 100
  48	 101
  48	 103
  48	 107
  48	 109
  48	 110
  48	 111
  48	 113
  48	 118
  49	  51
  49	  52
  49	  54
  49	  56
  49	  58
  49	  61
  49	  62
  49	  63
  49	  66
  49	  68
  49	  71
  49	  72
  49	  75
  49	  78
  49	  79
  49	  81
  49	  85
  49	  87
  49	  91
  49	  95
  49	 106
  49	 109
  49	 113
  50	  51
  50	  57
  50	  58
  50	  59
  50	  60
  50	  73
  50	  75
  50	  76
  50	  77
  50	  80
  50	  81
  50	  83
  50	  84
  50	  87
  50	  89
  50	  90
  50	  93
  50	  95
  50	  96
  50	  97
  50	  99
  50	 102
  50	 105
  50	 107
  50	 109
  50	 111
  50	 114
  50	 115
  51	  56
  51	  58
  51	  61
  51	  63
  51	  64
  51	  67
  51	  68
  51	  72
  51	  74
  51	  80
  51	  81
  51	  82
  51	  85
  51	  86
  51	  87
  51	  94
  51	  96
  51	  98
  51	 102
  51	 104
  51	 108
  51	 110
  51	 111
  51	 114
  51	 115
  51	 116
  52	  64
  52	  66
  52	  67
  52	  69
  52	  70
  52	  72
  52	  75
  52	  77
  52	  79
  52	  80
  52	  82
  52	  84
  52	  85
  52	  87
  52	  89
  52	  94
  52	  97
  52	  99
  52	 101
  52	 102
  52	 104
  52	 106
  52	 107
  52	 108
  52	 110
  52	 112
  52	 116
  52	 118
  53	  54
  53	  55
  53	  58
  53	  61
  53	  63
  53	  64
  53	  67
  53	  68
  53	  69
  53	  70
  53	  72
  53	  74
  53	  78
  53	  83
  53	  85
  53	  86
  53	  87
  53	  89
  53	  91
  53	  94
  53	  95
  53	  97
  53	 100
  53	 101
  53	 102
  53	 105
  53	 106
  53	 111
  53	 114
  54	  55
  54	  58
  54	  62
  54	  66
  54	  67
  54	  70
  54	  71
  54	  74
  54	  77
  54	  78
  54	  79
  54	  80
  54	  82
  54	  83
  54	  85
  54	  86
  54	  89
  54	  92
  54	  94
  54	  96
  54	  97
  54	  99
  54	 110
  54	 112
  54	 113
  54	 114
  54	 115
  54	 117
  54	 119
  55	  58
  55	  63
  55	  65
  55	  67
  55	  68
  55	  74
  55	  75
  55	  77
  55	  78
  55	  80
  55	  81
  55	  82
  55	  85
  55	  88
  55	  89
  55	  91
  55	  96
  55	 103
  55	 104
  55	 108
  55	 111
  55	 113
  55	 114
  55	 115
  55	 116
  55	 117
  55	 119
  56	  58
  56	  59
  56	  60
  56	  61
  56	  62
  56	  66
  56	  68
  56	  69
  56	  70
  56	  71
  56	  74
  56	  79
  56	  80
  56	  82
  56	  83
  56	  84
  56	  85
  56	  91
  56	  92
  56	 108
  56	 111
  56	 112
  56	 114
  56	 116
  56	 118
  57	  59
  57	  61
  57	  62
  57	  66
  57	  68
  57	  71
  57	  73
  57	  80
  57	  81
  57	  82
  57	  85
  57	  86
  57	  91
  57	  94
  57	  95
  57	  98
  57	 100
  57	 103
  57	 104
  57	 105
  57	 106
  57	 107
  57	 108
  57	 109
  57	 111
  57	 113
  57	 114
  57	 117
  58	  59
  58	  62
  58	  63
  58	  66
  58	  68
  58	  69
  58	  78
  58	  79
  58	  84
  58	  85
  58	  86
  58	  88
  58	  89
  58	  91
  58	  93
  58	  95
  58	  96
  58	 101
  58	 103
  58	 107
  58	 108
  58	 111
  58	 113
  58	 114
  58	 115
  58	 116
  58	 119
  59	  60
  59	  63
  59	  64
  59	  70
  59	  71
  59	  73
  59	  74
  59	  81
  59	  86
  59	  90
  59	  94
  59	  96
  59	 100
  59	 101
  59	 105
  59	 107
  59	 110
  59	 112
  59	 115
  59	 117
  59	 118
  59	 119
  60	  61
  60	  62
  60	  63
  60	  65
  60	  66
  60	  68
  60	  70
  60	  73
  60	  74
  60	  77
  60	  79
  60	  83
  60	  84
  60	  85
  60	  89
  60	  90
  60	  91
  60	  92
  60	  93
  60	  98
  60	 102
  60	 105
  60	 106
  60	 107
  60	 114
  60	 119
  61	  70
  61	  74
  61	  75
  61	  77
  61	  78
  61	  84
  61	  85
  61	  91
  61	  94
  61	  97
  61	  99
  61	 101
  61	 102
  61	 104
  61	 105
  61	 108
  61	 110
  61	 112
  61	 113
  61	 118
  62	  69
  62	  71
  62	  72
  62	  75
  62	  76
  62	  79
  62	  80
  62	  81
  62	  82
  62	  86
  62	  87
  62	  89
  62	  91
  62	  93
  62	  95
  62	  96
  62	  97
  62	  99
  62	 102
  62	 103
  62	 104
  62	 105
  62	 107
  62	 109
  62	 110
  62	 112
  62	 113
  62	 115
  62	 116
  63	  64
  63	  66
  63	  71
  63	  72
  63	  73
  63	  74
  63	  79
  63	  82
  63	  83
  63	  86
  63	  88
  63	  91
  63	  93
  63	  95
  63	  96
  63	  97
  63	  98
  63	  99
  63	 102
  63	 103
  63	 104
  63	 107
  63	 108
  63	 109
  63	 111
  63	 112
  63	 113
  63	 114
  63	 116
  63	 117
  63	 118
  63	 119
  64	  66
  64	  68
  64	  69
  64	  71
  64	  73
  64	  74
  64	  79
  64	  86
  64	  91
  64	  93
  64	  95
  64	  96
  64	  99
  64	 100
  64	 106
  64	 111
  65	  69
  65	  71
  65	  74
  65	  76
  65	  82
  65	  85
  65	  92
  65	  95
  65	  97
  65	  99
  65	 104
  65	 105
  65	 106
  65	 108
  65	 110
  65	 114
  65	 116
  65	 118
  66	  68
  66	  69
  66	  70
  66	  71
  66	  73
  66	  80
  66	  82
  66	  83
  66	  86
  66	  90
  66	  91
  66	  95
  66	  99
  66	 101
  66	 107
  66	 108
  66	 109
  66	 115
  66	 117
  67	  68
  67	  69
  67	  70
  67	  71
  67	  72
  67	  74
  67	  77
  67	  81
  67	  84
  67	  86
  67	  87
  67	  88
  67	  92
  67	  93
  67	  95
  67	  97
  67	  98
  67	  99
  67	 102
  67	 104
  67	 109
  67	 110
  67	 111
  67	 113
  67	 114
  67	 115
  67	 117
  67	 118
  68	  71
  68	  72
  68	  73
  68	  74
  68	  78
  68	  79
  68	  80
  68	  83
  68	  86
  68	  87
  68	  90
  68	  94
  68	  96
  68	  98
  68	 114
  68	 115
  68	 117
  69	  70
  69	  74
  69	  82
  69	  83
  69	  85
  69	  86
  69	  87
  69	  88
  69	  90
  69	  93
  69	  94
  69	  98
  69	 100
  69	 102
  69	 103
  69	 106
  69	 108
  69	 109
  69	 115
  70	  71
  70	  72
  70	  75
  70	  77
  70	  79
  70	  83
  70	  87
  70	  92
  70	  96
  70	  98
  70	  99
  70	 103
  70	 107
  70	 111
  70	 115
  70	 117
  70	 119
  71	  72
  71	  73
  71	  75
  71	  76
  71	  78
  71	  80
  71	  82
  71	  83
  71	  84
  71	  87
  71	  91
  71	  93
  71	  95
  71	  96
  71	  97
  71	  98
  71	  99
  71	 101
  71	 102
  71	 103
  71	 104
  71	 107
  71	 108
  71	 112
  71	 117
  71	 119
  72	  74
  72	  75
  72	  76
  72	  84
  72	  91
  72	  92
  72	  93
  72	  94
  72	  95
  72	 102
  72	 103
  72	 105
  72	 112
  72	 113
  72	 114
  72	 115
  72	 116
  73	  75
  73	  79
  73	  80
  73	  81
  73	  83
  73	  86
  73	  90
  73	  91
  73	  93
  73	  94
  73	  95
  73	  97
  73	 110
  73	 113
  73	 114
  73	 115
  73	 116
  73	 118
  74	  75
  74	  76
  74	  78
  74	  81
  74	  82
  74	  87
  74	  88
  74	  90
  74	  91
  74	  92
  74	  94
  74	  95
  74	  96
  74	 100
  74	 101
  74	 102
  74	 108
  74	 111
  74	 113
  74	 116
  75	  79
  75	  80
  75	  82
  75	  83
  75	  85
  75	  88
  75	  94
  75	 105
  75	 108
  75	 111
  75	 112
  75	 118
  76	  78
  76	  87
  76	  91
  76	  93
  76	  94
  76	  95
  76	  97
  76	  98
  76	  99
  76	 100
  76	 102
  76	 109
  76	 113
  76	 115
  77	  78
  77	  81
  77	  82
  77	  83
  77	  89
  77	  92
  77	  94
  77	  97
  77	 100
  77	 104
  77	 105
  77	 106
  77	 112
  77	 113
  77	 119
  78	  82
  78	  83
  78	  88
  78	  91
  78	  92
  78	  96
  78	  98
  78	 103
  78	 104
  78	 106
  78	 109
  78	 112
  79	  82
  79	  84
  79	  85
  79	  87
  79	  88
  79	  89
  79	  90
  79	  91
  79	  96
  79	  99
  79	 101
  79	 104
  79	 105
  79	 111
  79	 114
  79	 115
  79	 116
  79	 118
  79	 119
  80	  87
  80	  88
  80	  91
  80	  92
  80	  93
  80	  95
  80	  97
  80	 101
  80	 102
  80	 104
  80	 109
  80	 110
  80	 116
  81	  82
  81	  84
  81	  90
  81	  91
  81	  93
  81	  96
  81	  98
  81	  99
  81	 102
  81	 105
  81	 108
  81	 111
  81	 112
  81	 114
  81	 115
  81	 117
  81	 119
  82	  83
  82	  88
  82	  89
  82	  90
  82	  93
  82	  94
  82	  95
  82	  96
  82	  97
  82	  98
  82	  99
  82	 101
  82	 106
  82	 108
  82	 110
  82	 111
  82	 112
  83	  88
  83	  89
  83	  96
  83	 100
  83	 106
  83	 109
  84	  96
  84	  97
  84	  99
  84	 100
  84	 109
  84	 110
  84	 111
  84	 114
  84	 118
  85	  88
  85	  89
  85	  90
  85	  95
  85	  97
  85	  99
  85	 100
  85	 101
  85	 103
  85	 104
  85	 105
  85	 109
  85	 110
  85	 114
  85	 117
  85	 118
  86	  90
  86	  93
  86	  94
  86	  96
  86	  97
  86	  98
  86	 101
  86	 103
  86	 104
  86	 105
  86	 108
  86	 109
  86	 110
  86	 112
  86	 116
  87	  89
  87	  91
  87	 101
  87	 103
  87	 106
  87	 112
  87	 115
  88	  90
  88	  91
  88	  95
  88	  96
  88	  97
  88	 101
  88	 104
  88	 106
  88	 108
  88	 114
  88	 115
  88	 117
  88	 119
  89	  90
  89	  91
  89	  93
  89	  94
  89	  96
  89	 100
  89	 102
  89	 105
  89	 107
  89	 108
  89	 110
  89	 111
  89	 116
  89	 119
  90	  93
  90	  97
  90	  99
  90	 101
  90	 104
  90	 107
  90	 108
  90	 111
  90	 112
  90	 113
  90	 116
  91	  92
  91	  93
  91	  96
  91	  97
  91	  99
  91	 102
  91	 104
  91	 105
  91	 106
  91	 107
  91	 108
  91	 109
  91	 111
  91	 113
  92	  94
  92	 103
  92	 109
  92	 111
  92	 112
  92	 119
  93	 104
  94	  97
  94	  98
  94	 100
  94	 101
  94	 103
  94	 104
  94	 107
  94	 115
  94	 117
  95	  96
  95	  97
  95	 100
  95	 101
  95	 102
  95	 103
  95	 104
  95	 105
  95	 106
  95	 107
  95	 108
  95	 109
  95	 110
  95	 111
  95	 115
  95	 118
  96	  97
  96	  98
  96	 106
  96	 115
  96	 116
  96	 117
  96	 118
  97	 100
  97	 101
  97	 107
  97	 108
  97	 111
  97	 112
  97	 114
  97	 116
  97	 119
  98	 100
  98	 102
  98	 103
  98	 107
  98	 108
  98	 110
  98	 115
  98	 116
  98	 117
  98	 118
  99	 102
  99	 108
  99	 111
 100	 102
 100	 103
 100	 104
 100	 107
 100	 108
 100	 109
 100	 111
 100	 112
 100	 113
 100	 116
 100	 117
 100	 118
 100	 119
 101	 104
 101	 107
 101	 110
 101	 111
 101	 112
 101	 113
 101	 115
 101	 118
 102	 104
 102	 108
 102	 109
 102	 110
 102	 112
 102	 113
 102	 115
 102	 116
 102	 117
 102	 119
 103	 109
 103	 110
 103	 113
 103	 115
 103	 117
 104	 106
 104	 108
 104	 109
 104	 111
 104	 114
 104	 118
 104	 119
 105	 106
 105	 111
 105	 115
 105	 116
 105	 117
 105	 118
 105	 119
 106	 107
 106	 109
 106	 110
 106	 111
 106	 112
 106	 116
 106	 117
 107	 110
 107	 113
 107	 115
 107	 116
 108	 109
 108	 111
 108	 112
 108	 115
 108	 117
 108	 118
 109	 111
 109	 112
 109	 115
 109	 117
 109	 118
 110	 112
 110	 113
 110	 114
 110	 115
 110	 116
 110	 118
 110	 119
 111	 112
 111	 113
 111	 114
 111	 115
 111	 118
 112	 119
 113	 119
 114	 115
 114	 118
 116	 117
 117	 118
 117	 119
;
